
Gurobi 11.0.0 (linux64) logging started Wed Apr 10 21:12:53 2024

Set parameter LogFile to value "/lustre1/scratch/348/vsc34888/JointResearch/05.Models/06.Benchmarking/B.Operation_cost/9n_ByStages_nc20/openStarNet_9n_ByStages_nc20.log"
Set parameter Method to value 2
Set parameter MIPFocus to value 1
Set parameter Presolve to value 2
Set parameter RINS to value 100
Set parameter MIPGap to value 0.01
Set parameter Threads to value 36
Set parameter TimeLimit to value 259200
Set parameter IterationLimit to value 760000000
Gurobi Optimizer version 11.0.0 build v11.0.0rc2 (linux64 - "Rocky Linux 8.8 (Green Obsidian)")

CPU model: Intel(R) Xeon(R) Gold 6240 CPU @ 2.60GHz, instruction set [SSE2|AVX|AVX2|AVX512]
Thread count: 36 physical cores, 36 logical processors, using up to 36 threads

Optimize a model with 5243 rows, 2793 columns and 15807 nonzeros
Model fingerprint: 0x0c233dbc
Variable types: 2757 continuous, 36 integer (36 binary)
Coefficient statistics:
  Matrix range     [9e-04, 2e+03]
  Objective range  [1e+00, 1e+00]
  Bounds range     [4e-04, 2e+00]
  RHS range        [4e-04, 1e+00]
Presolve removed 1783 rows and 944 columns
Presolve time: 0.02s
Presolved: 3460 rows, 1849 columns, 11813 nonzeros
Variable types: 1813 continuous, 36 integer (36 binary)
Found heuristic solution: objective 1589.1669704
Root relaxation presolved: 3460 rows, 1849 columns, 11813 nonzeros

Root barrier log...

Ordering time: 0.12s

Barrier statistics:
 AA' NZ     : 1.475e+05
 Factor NZ  : 8.792e+05 (roughly 10 MB of memory)
 Factor Ops : 3.504e+08 (less than 1 second per iteration)
 Threads    : 36

                  Objective                Residual
Iter       Primal          Dual         Primal    Dual     Compl     Time
   0   4.75742282e+05 -1.20195239e+07  7.03e+00 2.36e+02  6.82e+03     0s
   1   7.09342806e+04 -4.84328437e+06  8.76e-01 7.48e-11  1.01e+03     0s
   2   1.18936407e+04 -3.17028261e+06  3.45e-02 2.54e-11  4.75e+02     0s
   3   3.22933965e+03 -7.97063913e+04  1.18e-14 2.97e-11  1.22e+01     0s
   4   1.22184995e+03 -5.43390877e+03  2.22e-14 2.73e-12  9.76e-01     0s
   5   5.85278042e+02 -1.14183400e+03  1.95e-14 9.09e-13  2.53e-01     0s
   6   2.41539360e+02 -1.85810437e+02  4.97e-14 9.09e-13  6.27e-02     0s
   7   1.23241674e+02  9.99524832e+00  2.99e-13 9.09e-13  1.66e-02     0s
   8   9.60717399e+01  6.95203548e+01  3.49e-13 1.82e-12  3.89e-03     0s
   9   9.05623879e+01  8.86533354e+01  6.83e-13 9.09e-13  2.80e-04     0s
  10   9.01384376e+01  8.92660707e+01  5.53e-11 9.09e-13  1.28e-04     1s
  11   8.96044216e+01  8.93318546e+01  1.34e-11 9.09e-13  4.00e-05     1s
  12   8.94601033e+01  8.94217616e+01  4.53e-09 1.82e-12  5.62e-06     1s
  13   8.94255746e+01  8.94255672e+01  1.29e-11 1.36e-12  1.08e-09     1s
  14   8.94255678e+01  8.94255678e+01  8.79e-11 9.09e-13  1.08e-12     1s

Barrier solved model in 14 iterations and 0.60 seconds (0.15 work units)
Optimal objective 8.94255678e+01


Root relaxation: objective 8.942557e+01, 145 iterations, 0.59 seconds (0.12 work units)

    Nodes    |    Current Node    |     Objective Bounds      |     Work
 Expl Unexpl |  Obj  Depth IntInf | Incumbent    BestBd   Gap | It/Node Time

     0     0   89.42557    0    6 1589.16697   89.42557  94.4%     -    0s
H    0     0                    1439.1963294   89.42557  93.8%     -    0s
H    0     0                      99.5165184   89.42557  10.1%     -    0s
     0     0          -    0        99.51652   98.64775  0.87%     -    0s

Cutting planes:
  Gomory: 3
  MIR: 42
  Relax-and-lift: 2

Explored 1 nodes (161 simplex iterations) in 0.78 seconds (0.18 work units)
Thread count was 36 (of 36 available processors)

Solution count 3: 99.5165 1439.2 1589.17 

Optimal solution found (tolerance 1.00e-02)
Best objective 9.951651839813e+01, best bound 9.864775068147e+01, gap 0.8730%

Gurobi 11.0.0 (linux64) logging started Wed Apr 10 21:12:54 2024

Set parameter LogFile to value "/lustre1/scratch/348/vsc34888/JointResearch/05.Models/06.Benchmarking/B.Operation_cost/9n_ByStages_nc20/openStarNet_9n_ByStages_nc20.log"
Set parameter Method to value 2
Set parameter MIPFocus to value 1
Set parameter Presolve to value 2
Set parameter RINS to value 100
Set parameter MIPGap to value 0.01
Set parameter Threads to value 36
Set parameter TimeLimit to value 259200
Set parameter IterationLimit to value 760000000
Gurobi Optimizer version 11.0.0 build v11.0.0rc2 (linux64 - "Rocky Linux 8.8 (Green Obsidian)")

CPU model: Intel(R) Xeon(R) Gold 6240 CPU @ 2.60GHz, instruction set [SSE2|AVX|AVX2|AVX512]
Thread count: 36 physical cores, 36 logical processors, using up to 36 threads

Optimize a model with 5243 rows, 2757 columns and 12891 nonzeros
Model fingerprint: 0x75e613f1
Coefficient statistics:
  Matrix range     [9e-04, 2e+03]
  Objective range  [1e+00, 1e+00]
  Bounds range     [4e-04, 2e+00]
  RHS range        [4e-04, 2e+01]
Presolve removed 4789 rows and 1833 columns
Presolve time: 0.01s
Presolved: 454 rows, 924 columns, 1972 nonzeros

Ordering time: 0.00s

Barrier statistics:
 AA' NZ     : 8.990e+02
 Factor NZ  : 3.957e+03 (roughly 1 MB of memory)
 Factor Ops : 4.316e+04 (less than 1 second per iteration)
 Threads    : 1

                  Objective                Residual
Iter       Primal          Dual         Primal    Dual     Compl     Time
   0   5.85568199e+05 -4.64372982e+06  6.23e+00 1.11e+03  1.36e+04     0s
   1   6.70546530e+04 -2.76442764e+06  5.11e-01 1.20e-11  1.97e+03     0s
   2   2.27651763e+04 -6.09501166e+05  8.24e-02 1.82e-11  3.42e+02     0s
   3   6.26670212e+03 -3.24771455e+04  3.83e-05 7.28e-12  1.84e+01     0s
   4   1.13445600e+03 -1.99756765e+03  1.33e-08 4.55e-12  1.48e+00     0s
   5   6.01303811e+02 -5.03091126e+02  2.44e-09 3.64e-12  5.23e-01     0s
   6   3.02705204e+02 -1.51376666e+02  8.28e-10 3.64e-12  2.15e-01     0s
   7   1.62373653e+02 -1.93587431e+00  2.19e-10 1.82e-12  7.78e-02     0s
   8   1.12804806e+02  7.05893020e+01  3.73e-11 3.64e-12  2.00e-02     0s
   9   1.01114821e+02  9.63465777e+01  3.64e-12 7.28e-12  2.26e-03     0s
  10   9.95510641e+01  9.93478321e+01  2.96e-13 5.46e-12  9.63e-05     0s
  11   9.95168315e+01  9.95160693e+01  7.48e-14 3.64e-12  3.61e-07     0s
  12   9.95165184e+01  9.95165184e+01  2.56e-13 3.64e-12  3.68e-13     0s

Barrier solved model in 12 iterations and 0.01 seconds (0.01 work units)
Optimal objective 9.95165184e+01

Crossover log...

     235 DPushes remaining with DInf 0.0000000e+00                 0s
       0 DPushes remaining with DInf 0.0000000e+00                 0s

       0 PPushes remaining with PInf 0.0000000e+00                 0s

  Push phase complete: Pinf 0.0000000e+00, Dinf 8.2822638e-14      0s

Iteration    Objective       Primal Inf.    Dual Inf.      Time
      14    9.9516518e+01   0.000000e+00   0.000000e+00      0s

Solved in 14 iterations and 0.02 seconds (0.01 work units)
Optimal objective  9.951651840e+01
